GLPSOL--GLPK LP/MIP Solver 5.0
Parameter(s) specified in the command line:
 --lp ../modeles/5_264.lp --log 5_264.log
Reading problem data from '../modeles/5_264.lp'...
1341 rows, 2650 columns, 9255 non-zeros
1320 integer variables, all of which are binary
4002 lines were read
GLPK Integer Optimizer 5.0
1341 rows, 2650 columns, 9255 non-zeros
1320 integer variables, all of which are binary
Preprocessing...
1310 constraint coefficient(s) were reduced
1341 rows, 2645 columns, 9250 non-zeros
1320 integer variables, all of which are binary
Scaling...
 A: min|aij| =  2.296e-04  max|aij| =  4.000e+00  ratio =  1.742e+04
GM: min|aij| =  8.704e-02  max|aij| =  1.149e+01  ratio =  1.320e+02
EQ: min|aij| =  7.576e-03  max|aij| =  1.000e+00  ratio =  1.320e+02
2N: min|aij| =  3.673e-03  max|aij| =  1.708e+00  ratio =  4.650e+02
Constructing initial basis...
Size of triangular part is 1341
Solving LP relaxation...
GLPK Simplex Optimizer 5.0
1341 rows, 2645 columns, 9250 non-zeros
      0: obj =   1.000000000e+01 inf =   2.035e+02 (11)
    104: obj =   3.906667049e-01 inf =   0.000e+00 (0)
*   287: obj =  -2.235747304e+00 inf =   1.586e-15 (0)
OPTIMAL LP SOLUTION FOUND
Integer optimization begins...
Long-step dual simplex will be used
+   287: mip =     not found yet >=              -inf        (1; 0)
+   294: >>>>>  -2.235513025e+00 >=  -2.235747304e+00 < 0.1% (7; 0)
+   298: >>>>>  -2.235747304e+00 >=  -2.235747304e+00 < 0.1% (6; 3)
+   298: mip =  -2.235747304e+00 >=     tree is empty   0.0% (0; 15)
INTEGER OPTIMAL SOLUTION FOUND
Time used:   0.0 secs
Memory used: 3.9 Mb (4135795 bytes)
